; benchmark generated from python API
(set-info :status unknown)
(declare-fun S_4 () Real)
(declare-fun C () Real)
(declare-fun L_2 () Real)
(declare-fun A_2 () Real)
(declare-fun S_3 () Real)
(declare-fun L_4 () Real)
(declare-fun A_4 () Real)
(declare-fun A_1 () Real)
(declare-fun L_1 () Real)
(declare-fun A_3 () Real)
(declare-fun L_3 () Real)
(declare-fun S_2 () Real)
(declare-fun S_0 () Real)
(declare-fun S_1 () Real)
(declare-fun A_0 () Real)
(declare-fun L_0 () Real)
(assert
 (let (($x1584 (<= (+ (* (- 1.0) L_1) A_1 (* (- 1.0) C) L_0 (* (- 1.0) A_0)) 0.0)))
 (let (($x1564 (<= (+ (* (- 1.0) C) L_3 (* (- 1.0) L_4) (* (- 1.0) A_3) A_4) 0.0)))
 (let (($x1505 (not $x1564)))
 (let (($x1265 (<= (+ C L_2 (* (- 1.0) L_3) A_1 (* (- 1.0) A_2)) 0.0)))
 (let (($x1266 (<= (+ (* (- 1.0) C) L_2 (* (- 1.0) L_3) (* (- 1.0) A_2) A_3) 0.0)))
 (let (($x927 (not $x1266)))
 (let ((?x673 (* (- 1.0) L_1)))
 (let ((?x662 (* (- 1.0) L_4)))
 (let (($x597 (= ?x662 ?x673)))
 (let ((?x761 (* (- 1.0) A_3)))
 (let ((?x1240 (* (- 1.0) S_1)))
 (let ((?x664 (* (- 1.0) L_0)))
 (let ((?x873 (* 3.0 C)))
 (let ((?x1239 (* 2.0 A_0)))
 (let (($x10591 (<= (+ ?x1239 ?x873 ?x664 ?x1240 ?x673 L_3 ?x761) 0.0)))
 (let (($x2162 (<= (+ C (* (- 1.0) L_2) ?x1239 ?x664 ?x1240 L_1 (* (- 1.0) A_1)) 0.0)))
 (let (($x2156 (<= (+ (* (- 1.0) L_3) C ?x1239 ?x664 ?x1240 L_1 (* (- 1.0) A_1)) 0.0)))
 (let (($x1880 (<= (+ (* (- 2.0) C) A_2 (* (- 1.0) L_2) L_0 (* (- 1.0) A_0)) 0.0)))
 (let (($x1274 (<= (+ A_0 C ?x664 L_1 (* (- 1.0) A_1)) 0.0)))
 (let (($x810 (not $x1274)))
 (let (($x1560 (<= (+ A_1 (* 2.0 C) L_3 ?x662 ?x761) 0.0)))
 (let ((?x682 (* (- 1.0) L_2)))
 (let ((?x691 (* (- 1.0) L_3)))
 (let (($x617 (= ?x691 ?x682)))
 (let (($x1882 (<= (+ (* (- 1.0) C) A_2 ?x682 L_1 (* (- 1.0) A_1)) 0.0)))
 (let (($x5552 (<= (+ A_2 ?x682 C ?x673 ?x1240 L_3 A_0 ?x761) 0.0)))
 (let (($x4522 (<= (+ C ?x673 A_1 ?x1240 ?x662 L_2 A_0 (* (- 1.0) A_2)) 0.0)))
 (let (($x4546 (not $x4522)))
 (let (($x4505 (<= (+ ?x691 C ?x673 A_1 ?x1240 L_2 A_0 (* (- 1.0) A_2)) 0.0)))
 (let (($x2970 (<= (+ (* (- 3.0) C) A_4 ?x662 L_1 (* (- 1.0) A_1)) 0.0)))
 (let (($x2953 (not $x2970)))
 (let (($x1218 (not (<= (+ A_0 (* 4.0 C) ?x664 (* (- 1.0) A_4) L_4) 0.0))))
 (let (($x2115 (<= (+ C ?x1239 ?x664 ?x1240 L_1 ?x662 (* (- 1.0) A_1)) 0.0)))
 (let (($x1791 (not $x1880)))
 (let (($x615 (= ?x691 ?x673)))
 (let (($x14636 (not $x615)))
 (let ((?x855 (* (- 1.0) A_4)))
 (let ((?x878 (* 2.0 C)))
 (let ((?x5569 (* (- 2.0) L_2)))
 (let (($x8753 (<= (+ A_2 ?x5569 ?x878 A_0 ?x1240 ?x855 L_4) 0.0)))
 (let (($x8781 (<= (+ A_2 ?x682 ?x878 A_0 ?x1240 ?x855) 0.0)))
 (let (($x8739 (not $x8781)))
 (let (($x2475 (<= (+ ?x691 A_3 C ?x673 ?x1240 ?x855 L_4 A_0) 0.0)))
 (let (($x1276 (<= (+ A_0 ?x878 ?x664 L_2 (* (- 1.0) A_2)) 0.0)))
 (let (($x8604 (<= (+ A_2 ?x682 (* (- 1.0) A_0) L_0 ?x673 L_3 A_1 ?x761) 0.0)))
 (let (($x1510 (not (<= (+ A_1 ?x878 ?x761) 0.0))))
 (let (($x1248 (<= (+ (* (- 2.0) A_0) (* (- 2.0) C) L_0 S_0 L_1 ?x682 A_2) 0.0)))
 (let (($x620 (= ?x673 ?x664)))
 (let (($x4078 (<= (+ ?x673 ?x1240 A_0) 0.0)))
 (let (($x1790 (not $x1882)))
 (let (($x1529 (not $x1584)))
 (let (($x3921 (<= (+ ?x662 ?x1240 A_0) 0.0)))
 (let (($x1576 (<= (+ C L_3 ?x682 A_2 ?x761) 0.0)))
 (let (($x1278 (<= (+ A_0 ?x873 ?x664 L_3 ?x761) 0.0)))
 (let (($x475 (= ?x682 ?x673)))
 (let (($x523 (not $x475)))
 (let (($x1876 (<= (+ ?x691 A_3 C L_4 ?x855) 0.0)))
 (let (($x1793 (not $x1876)))
 (let (($x1870 (<= (+ ?x691 A_3 (* (- 3.0) C) L_0 (* (- 1.0) A_0)) 0.0)))
 (let (($x1797 (not $x1870)))
 (let (($x1588 (<= (+ ?x673 A_1 ?x873 L_4 ?x855) 0.0)))
 (let (($x469 (= ?x662 ?x691)))
 (let (($x23058 (or $x810 $x1266 $x1880 $x10591 (not (<= (+ ?x1239 ?x873 ?x664 ?x1240 ?x761) 0.0)))))
 (let (($x10592 (<= (+ (* (- 2.0) A_0) (* (- 3.0) C) L_0 S_0 L_1 ?x691 A_3) 0.0)))
 (let (($x1872 (<= (+ ?x691 A_3 (* (- 2.0) C) L_1 (* (- 1.0) A_1)) 0.0)))
 (let (($x1270 (<= (+ C ?x673 L_2 A_1 (* (- 1.0) A_2)) 0.0)))
 (let (($x2149 (<= (+ L_3 ?x761 A_0 ?x664 L_1 ?x662 (* (- 1.0) A_1) A_4) 0.0)))
 (let ((?x774 (* (- 1.0) A_0)))
 (let ((?x1243 (* (- 1.0) C)))
 (let (($x1850 (<= (+ L_3 ?x761 ?x1243 L_1 S_0 ?x662 ?x774 A_4) 0.0)))
 (let (($x6384 (<= (+ (* (- 2.0) L_1) A_1 ?x873 ?x1240 ?x855 L_4 A_0) 0.0)))
 (let (($x4504 (<= (+ L_3 ?x761 ?x673 A_1 A_4 ?x662 L_2 (* (- 1.0) A_2)) 0.0)))
 (let (($x1498 (not $x1576)))
 (let (($x822 (not $x1276)))
 (let (($x2868 (<= (+ ?x1239 (* 4.0 C) ?x664 ?x1240 ?x855 L_4 ?x673) 0.0)))
 (let (($x33864 (or $x617 $x810 $x1266 $x1791 (<= (+ A_2 ?x682 C ?x1240 ?x662 L_3 A_0 ?x761) 0.0))))
 (let (($x1551 (<= (+ (* (- 2.0) L_1) A_1 ?x878 ?x1240 L_3 A_0 ?x761) 0.0)))
 (let (($x18467 (or $x822 $x1265 $x1498 (<= (+ ?x873 ?x855 L_4 ?x691 A_1) 0.0) (not (<= (+ ?x873 ?x855 A_1) 0.0)))))
 (let (($x3114 (<= (+ ?x691 A_3 ?x774 L_0 ?x855 A_1) 0.0)))
 (let (($x1261 (<= (+ (* (- 2.0) C) A_4 ?x662 L_2 (* (- 1.0) A_2)) 0.0)))
 (let (($x19468 (or $x469 $x1261 $x1588 $x3114 (<= (+ A_2 ?x682 C ?x774 L_0 ?x855 A_1) 0.0))))
 (let (($x16783 (or $x1266 $x2868 (<= (+ ?x673 A_1 ?x873 ?x1240 ?x855 L_4 ?x691 A_0) 0.0) (not (<= (+ ?x673 A_1 ?x873 ?x1240 ?x855 A_0) 0.0)) $x8753)))
 (let (($x6243 (<= (+ ?x673 A_1 ?x873 ?x1240 ?x855 A_0) 0.0)))
 (let (($x755 (not $x1270)))
 (let (($x18347 (or $x755 (not (<= (+ ?x1243 ?x662 L_2 (* (- 1.0) A_2) A_3) 0.0)) $x1266 $x2868 $x6243)))
 (let (($x4496 (<= (+ L_3 C ?x673 A_1 ?x662 L_2 (* (- 1.0) A_2)) 0.0)))
 (let ((?x684 (* (- 1.0) A_1)))
 (let ((?x675 (* (- 1.0) A_2)))
 (let (($x8464 (<= (+ ?x675 L_2 A_0 ?x664 L_1 ?x691 ?x684 A_3) 0.0)))
 (let (($x5737 (<= (+ ?x675 L_2 (* (- 2.0) C) L_1 S_0 A_4 ?x662 ?x774) 0.0)))
 (let (($x17247 (or $x1265 $x1266 $x1276 $x8739 (<= (+ A_2 ?x682 ?x878 A_0 ?x1240 ?x855 L_4 ?x691) 0.0))))
 (let (($x5554 (<= (+ ?x675 L_2 ?x1243 L_1 S_0 ?x691 ?x774 A_3) 0.0)))
 (let (($x2769 (<= (+ (* (- 2.0) A_0) (* (- 4.0) C) L_0 S_0 A_4 ?x662 L_1) 0.0)))
 (let (($x17406 (or (not (<= (+ C ?x662 L_2 A_1 ?x675) 0.0)) $x1266 $x1791 $x4496 $x5552)))
 (let (($x8700 (<= (+ A_2 ?x5569 C ?x774 L_0 ?x855 L_4 A_1) 0.0)))
 (let (($x3167 (<= (+ (* (- 2.0) L_3) A_3 ?x774 L_0 ?x855 L_4 A_1) 0.0)))
 (let (($x3146 (not $x3114)))
 (let (($x16176 (or $x620 $x1584 $x5737 (<= (+ ?x675 L_2 ?x1243 A_0 ?x664 A_4 ?x662 L_1 ?x684) 0.0))))
 (let (($x775 (not $x1278)))
 (let (($x19724 (or $x775 $x1584 (<= (+ ?x878 ?x855 L_4 ?x691 A_2) 0.0) (not (<= (+ ?x878 ?x855 A_2) 0.0)))))
 (let (($x3165 (<= (+ ?x691 A_3 ?x1243 ?x774 L_0 ?x855 A_2) 0.0)))
 (let (($x2850 (<= (+ ?x878 ?x855 A_2) 0.0)))
 (let (($x1580 (<= (+ ?x673 A_1 ?x878 L_3 ?x761) 0.0)))
 (let (($x35976 (or $x1529 $x1790 $x4078 $x5552 (not (<= (+ A_2 ?x682 C ?x1240 A_0 ?x761) 0.0)))))
 (let (($x4550 (<= (+ C (* (- 2.0) L_1) A_1 ?x1240 L_2 A_0 ?x675) 0.0)))
 (let (($x1556 (<= (+ (* 2.0 L_1) ?x684 (* (- 2.0) C) S_0 ?x691 ?x774 A_3) 0.0)))
 (let (($x5562 (<= (+ A_2 ?x682 C (* (- 1.0) S_4)) 0.0)))
 (let (($x1825 (<= (+ ?x691 A_3 (* (- 1.0) S_4)) 0.0)))
 (let (($x9422 (or $x1274 (<= (+ ?x673 A_1 ?x878 (* (- 1.0) S_4)) 0.0) $x1825 $x5562)))
 (let (($x33835 (or $x1266 (not (<= (+ A_3 C ?x855) 0.0)) (<= (+ ?x691 A_3 C ?x682 L_1 ?x855 L_4) 0.0))))
 (let (($x6285 (<= (+ (* 2.0 L_1) ?x684 (* (- 3.0) C) S_0 A_4 ?x662 ?x774) 0.0)))
 (let (($x16738 (or $x597 $x1266 $x1276 $x1584 (<= (+ A_2 ?x682 ?x878 ?x673 ?x1240 ?x855 L_4 A_0) 0.0) $x14636)))
 (let (($x7991 (or $x810 $x822 (<= (+ (* (- 1.0) S_4) A_0 ?x873 ?x664) 0.0) $x1825)))
 (let (($x14301 (not $x617)))
 (let (($x1242 (<= (+ ?x1239 ?x878 ?x664 ?x1240 ?x673 L_2 ?x675) 0.0)))
 (let (($x18894 (or $x615 $x1584 (<= (+ L_3 ?x761 C A_0 ?x664 A_4 ?x662 L_2 ?x675) 0.0) $x14301)))
 (let (($x34169 (or $x1278 $x1584 (not $x3165) (<= (+ ?x691 A_3 ?x1243 ?x774 L_0 ?x855 L_4 ?x682 A_2) 0.0) $x14301)))
 (let (($x2995 (<= (+ ?x691 A_3 L_1 ?x684 ?x855 L_4 ?x682 A_2) 0.0)))
 (let (($x3068 (<= (+ ?x691 A_3 L_1 ?x684 ?x855 A_2) 0.0)))
 (let (($x2945 (not $x3068)))
 (let (($x2873 (<= (+ ?x878 ?x855 L_4 ?x682 A_2) 0.0)))
 (let (($x17074 (or $x620 $x1882 (<= (+ ?x1243 (* 2.0 L_1) ?x684 S_0 ?x682 ?x774 A_2) 0.0))))
 (let (($x3944 (<= (+ ?x682 ?x1240 A_0) 0.0)))
 (let (($x1770 (or (<= (+ A_0 ?x878 ?x664 (* (- 1.0) S_3)) 0.0) (<= (+ ?x673 A_1 C (* (- 1.0) S_3)) 0.0) (<= (+ A_2 ?x682 (* (- 1.0) S_3)) 0.0))))
 (let (($x1470 (or (<= (+ A_0 C ?x664 (* (- 1.0) S_2)) 0.0) (<= (+ ?x673 A_1 (* (- 1.0) S_2)) 0.0))))
 (and (<= ?x673 ?x664) (<= ?x662 ?x691) (<= ?x682 ?x673) (<= ?x691 ?x682) $x1470 $x1770 (or $x597 $x1564 $x1576 $x1580 $x1797 $x2475 $x14636) (or $x469 $x1278 $x1576 $x1584 $x3114) (or $x1278 $x1576 $x1584 $x3146 $x3167) (or $x620 $x1274 $x1564 $x1850) (or (not (<= (+ C A_2 ?x761) 0.0)) $x1564 $x1576) (or (not (<= (+ C A_2 ?x761) 0.0)) $x1576 $x1872) (or $x475 $x1529 $x1882 $x4550) (or $x617 $x1576 (<= (+ ?x1243 L_1 ?x691 ?x684 A_2) 0.0)) (or $x617 $x1564) (or $x1270 $x4078 (not $x3944)) (or $x617 $x1576 (<= (+ ?x691 ?x1240 A_0) 0.0)) (or $x1576 $x3944 (not (<= (+ ?x691 ?x1240 A_0) 0.0))) (or $x1580 $x1882 (not (<= (+ ?x1243 L_1 ?x691 ?x684 A_2) 0.0))) (or (not (<= (+ C A_2 ?x761) 0.0)) (not $x1872) $x1882) (or $x615 $x1529 $x1882 $x4504) (or $x1564 $x1580 $x2945 $x2995) (or (not (<= (+ C A_2 ?x761) 0.0)) $x1576 $x1870) (or $x617 $x1576 $x1870) (or $x617 $x775 $x1576) (or $x617 $x1576 $x1584) (or $x469 $x1872 $x2953) $x17074 (or $x469 $x1505 $x1580 $x1882) (or $x469 $x1876 $x1882) (or $x469 (not $x1580) $x1576 $x2953) (or $x469 $x1564 $x2873 $x3068) (or $x1564 $x2873 $x2945 $x2995) (or $x475 $x1276 $x1584) (or $x615 $x1270 $x1584 $x14301) $x34169 $x18894 (or $x620 $x1584 $x1850 $x2149) (or $x615 $x1242 $x1584 $x14301) (or $x469 $x1505 $x1576 $x1880) (or $x475 $x1261) $x7991 (or $x469 $x1870 (<= (+ A_3 C ?x855) 0.0)) (or $x810 $x1276 $x1825 $x5562) $x16738 (or $x620 $x1261 $x1274 $x6285) (or $x469 $x1266 (<= (+ A_3 C ?x855) 0.0)) $x33835 (or $x597 $x1266 $x1274 $x1505 $x1551 $x5552) (or $x620 $x1261 $x1274 $x5737) (or $x597 $x1266 $x1274 $x6384 $x8781 $x14636) $x9422 (or $x597 $x927 $x1265 $x1505 $x3921) (or $x1265 $x1274 $x2475 (<= (+ ?x691 ?x1240 A_0) 0.0) $x5552 $x8739 $x8753) (or $x1876 (not $x3921) $x4078 $x14636) (or $x469 $x1876 $x3921) (or $x469 $x1872 $x2873) (or $x620 $x1556 $x1882) (or $x597 $x1274 $x1576 $x1872 $x6384 $x14636) (or $x523 $x597 $x1274 $x1564 $x1576 (not $x1872) $x2475) (or $x469 $x1274 $x1505 $x1551 $x1882) (or $x597 $x1274 $x1872 $x1882 $x6384 $x14636) (or $x475 $x1266) (or $x475 $x755 $x1529 $x4550) (or $x475 $x1529 $x1790 $x3944) (or $x1876 (not $x3921) (<= (+ ?x691 ?x1240 A_0) 0.0)) $x35976 (or $x620 $x1266 $x1274 $x5554) (or $x597 $x755 $x1261 $x1274 $x2475 $x6384 $x14636) (or $x475 $x1529 $x1564 $x1790) (or $x597 $x755 $x1274 $x1580 $x1790 $x2475 $x3921) (or $x1529 $x1576 $x1790 $x2475 $x4078 $x4546) (or $x597 $x927 $x1274 $x1790 $x1793 $x2475) (or $x469 $x1266 $x1584 $x1882 $x2868) (or $x475 $x1242 $x1584) (or $x469 $x1584 $x2850 $x3165) $x19724 (or $x469 $x1576 $x1584 $x1870 $x2868) (or $x597 $x775 $x1265 $x1576 $x1588) (or $x469 $x1266 $x1276 $x8700) $x16176 (or $x1261 $x1276 $x3146 $x3167 $x8700) (or $x597 $x927 $x1261 $x1265 $x1276 $x2475) (or $x597 $x1265 $x1266 $x1276 $x1505 $x5552) (or $x469 $x1265 $x1266 $x1880 $x2868) (or $x469 $x822 $x1266 $x1588) (or $x469 $x822 $x1265 $x1266 $x2868) $x17406 (or $x469 $x1266 $x1584 $x1880 $x2868) (or $x620 $x2769 $x2970) (or $x620 $x810 $x5554 $x8464) (or $x597 $x1265 $x1266 $x1529 $x8781 $x14301) $x17247 (or $x620 $x810 $x5737 $x8464) (or (not $x1265) $x1266 $x1270 $x1276 $x5552) (or $x1270 $x1505 $x1584 $x2868 (not $x4496) $x5552) $x18347 $x16783 (or $x597 $x927 $x1261 $x1584 $x1872 $x2868) (or $x597 $x927 $x1265 $x1870 $x2868) (or $x597 $x822 $x927 $x1265 $x1498 $x2868) (or $x469 $x755 $x1584 $x1870 $x2868) $x19468 $x18467 (or $x617 $x1274 $x1551 $x1882) $x33864 (or $x597 $x822 $x1266 $x1529 $x6384 $x14636) (or $x469 $x810 $x1872 $x1882 $x2868) (or $x597 $x822 $x1498 $x1529 $x4504 $x6384) (or $x620 $x810 $x1850 $x2149) (or $x475 $x1270 $x1880) (or $x620 $x1872 $x10592) $x23058 (or $x1510 (<= (+ A_1 ?x878 L_3 ?x682 ?x761) 0.0) $x1880) (or $x617 $x1266 $x1276 $x8604) (or $x469 $x1588 $x1870 $x1880) (or $x617 $x927 $x1584 $x1797) (or $x523 $x597 $x810 $x1564 $x1576 $x1797 $x2475) (or $x1505 $x1576 $x1793 (not $x2115) $x2156 $x2475) (or $x523 $x597 $x810 $x1278 $x1576 $x2475 $x3921) (or $x617 $x1529 $x1790 $x4078 $x5552) (or $x620 $x1248 $x1882) (or $x617 $x1266 $x1560 $x8604) (or $x1266 $x1510 $x1791 $x8604) (or $x617 $x810 $x1266 $x1791 $x5552) (or $x810 $x1276 $x2156 $x2475 $x8739 $x8753 $x14636) (or $x597 $x810 $x1505 $x1791 $x2115 $x5552) (or $x1218 $x1505 $x2156 $x2953 $x4505 $x4546 $x5552) (or $x617 $x810 $x1882 $x10591) (or $x617 $x810 $x1880 (<= (+ ?x1239 ?x873 ?x664 ?x1240 ?x761) 0.0)) (or $x617 $x1560 $x1880) (or $x810 $x1880 (not $x2156) $x2162 $x10591) (or $x597 $x927 $x1265 $x1505 $x1584) (<= (+ ?x774 ?x1243 L_0 S_1) 0.0) (<= (+ ?x774 (* (- 2.0) C) L_0 S_2) 0.0) (<= (+ ?x774 (* (- 3.0) C) L_0 S_3) 0.0) (<= (+ S_4 ?x774 (* (- 4.0) C) L_0) 0.0) (<= (+ L_1 ?x684 S_1) 0.0) (<= (+ L_1 ?x684 ?x1243 S_2) 0.0) (<= (+ L_1 ?x684 (* (- 2.0) C) S_3) 0.0) (<= (+ S_0 L_0 ?x774) 0.0) (<= (+ ?x1240 S_0) 0.0) (<= (+ ?x675 L_2 S_2) 0.0) (<= (+ L_3 ?x761 S_3) 0.0) (<= (+ L_3 ?x761 S_4 ?x1243) 0.0) (<= (+ L_1 ?x684 (* (- 3.0) C) S_4) 0.0) (<= (+ S_4 ?x855 L_4) 0.0) (<= (+ ?x675 L_2 ?x1243 S_3) 0.0) (<= (+ ?x675 L_2 (* (- 2.0) C) S_4) 0.0))))))))))))))))))))))))))))))))))))))))))))))))))))))))))))))))))))))))))))))))))))))))))))))))))))))))))))))))))))))))))))))))
(check-sat)
